rib_x_o00_si
1.0
24.32000000 0.00000000 0.00000000
0.00000000 8.96600000 0.00000000
0.00000000 0.00000000 17.34700000
Si Al O H
16 6 52 22
Cartesian
10.36000000 8.40000000 10.68000000
10.46000000 2.38000000 10.69000000
11.44000000 4.07000000 5.32000000
11.34000000 1.12000000 5.31000000
8.83000000 8.56000000 5.32000000
8.79000000 5.61000000 5.31000000
7.81000000 3.91000000 10.68000000
7.91000000 6.86000000 10.69000000
15.52000000 8.40000000 10.68000000
15.62000000 2.38000000 10.69000000
16.60000000 4.07000000 5.32000000
16.50000000 1.12000000 5.31000000
13.99000000 8.56000000 5.32000000
13.95000000 5.61000000 5.31000000
12.97000000 3.91000000 10.68000000
13.07000000 6.86000000 10.69000000
9.60000000 1.01000000 8.00000000
9.65000000 6.98000000 8.00000000
14.76000000 1.01000000 8.00000000
12.20000000 2.49000000 8.00000000
14.81000000 6.98000000 8.00000000
12.21000000 5.49000000 8.00000000
10.17000000 8.47000000 9.06000000
10.61000000 2.25000000 9.07000000
11.63000000 4.00000000 6.94000000
11.19000000 1.25000000 6.94000000
9.02000000 8.48000000 6.94000000
8.64000000 5.74000000 6.94000000
7.62000000 3.99000000 9.06000000
8.06000000 6.73000000 9.07000000
11.85000000 2.93000000 11.30000000
10.16000000 0.91400000 11.29000000
9.29000000 3.42000000 11.06000000
9.95000000 0.57000000 4.70000000
11.64000000 2.59000000 4.71000000
7.35000000 0.08000000 4.95000000
7.40000000 5.05000000 4.70000000
9.09000000 7.07000000 4.71000000
9.96000000 4.57000000 4.95000000
9.29000000 7.42000000 11.30000000
7.61000000 5.39000000 11.29000000
11.90000000 7.90000000 11.06000000
8.01000000 1.22000000 8.99000000
8.63000000 2.28000000 7.01000000
11.24000000 6.77000000 7.01000000
10.62000000 5.70000000 8.99000000
15.33000000 8.47000000 9.06000000
15.77000000 2.25000000 9.07000000
16.79000000 4.00000000 6.94000000
16.35000000 1.25000000 6.94000000
14.18000000 8.48000000 6.94000000
13.80000000 5.74000000 6.94000000
12.78000000 3.99000000 9.06000000
13.22000000 6.73000000 9.07000000
17.01000000 2.93000000 11.30000000
15.32000000 0.91400000 11.29000000
14.45000000 3.42000000 11.06000000
15.11000000 0.57000000 4.70000000
16.80000000 2.59000000 4.71000000
12.51000000 0.08000000 4.95000000
12.56000000 5.05000000 4.70000000
14.25000000 7.07000000 4.71000000
15.12000000 4.57000000 4.95000000
14.45000000 7.42000000 11.30000000
12.77000000 5.39000000 11.29000000
17.06000000 7.90000000 11.06000000
13.17000000 1.22000000 8.99000000
13.79000000 2.28000000 7.01000000
16.40000000 6.77000000 7.01000000
15.78000000 5.70000000 8.99000000
6.69000000 2.93000000 11.30000000
6.74000000 7.90000000 11.06000000
17.72000000 5.05000000 4.70000000
17.67000000 0.08000000 4.95000000
7.84000000 1.20000000 9.95000000
8.81000000 2.30000000 6.05000000
11.41000000 6.79000000 6.05000000
10.44000000 5.68000000 9.95000000
13.00000000 1.20000000 9.95000000
13.97000000 2.30000000 6.05000000
16.57000000 6.79000000 6.05000000
15.60000000 5.68000000 9.95000000
6.01614000 2.34037200 11.67303000
6.03445300 8.52715300 11.28312200
18.39386000 5.63962800 4.32697000
18.37654400 -0.54803900 4.73260200
7.83973100 5.61417100 7.47351300
7.15749000 3.99093600 8.20736700
7.55085700 6.10491400 8.53061100
6.64345600 0.70803900 5.16739800
6.72614000 4.46037200 5.07303000
16.56850800 2.37053000 8.53263900
17.25251900 3.99590600 7.79261900
16.86061400 1.87689200 7.47589200
17.68386000 3.51962800 10.92697000
17.76554700 7.27284700 10.83687800
