rib_y_o37_si
1.0
5.16000000 0.00000000 0.00000000
0.00000000 31.93200000 0.00000000
0.00000000 0.00000000 17.34700000
Si Al O H
16 8 53 18
Cartesian
3.36000000 12.08258000 10.68000000
4.44000000 7.75258000 5.32000000
1.83000000 12.24258000 5.32000000
1.79000000 9.29258000 5.31000000
0.81000000 7.59258000 10.68000000
0.91000000 10.54258000 10.69000000
3.36000000 21.04858000 10.68000000
3.46000000 15.02858000 10.69000000
4.44000000 16.71858000 5.32000000
4.34000000 13.76858000 5.31000000
1.83000000 21.20858000 5.32000000
1.79000000 18.25858000 5.31000000
0.81000000 16.55858000 10.68000000
0.91000000 19.50858000 10.69000000
3.46000000 23.99458000 10.69000000
4.34000000 22.73458000 5.31000000
2.65000000 10.66258000 8.00000000
0.05000000 9.17258000 8.00000000
2.60000000 13.65858000 8.00000000
0.04000000 15.13858000 8.00000000
2.65000000 19.62858000 8.00000000
0.05000000 18.13858000 8.00000000
2.60000000 22.62458000 8.00000000
0.04000000 24.10458000 8.00000000
3.17000000 12.15258000 9.06000000
4.63000000 7.68258000 6.94000000
2.02000000 12.16258000 6.94000000
1.64000000 9.42258000 6.94000000
0.62000000 7.67258000 9.06000000
1.06000000 10.41258000 9.07000000
2.29000000 7.10258000 11.06000000
0.40000000 8.73258000 4.70000000
2.09000000 10.75258000 4.71000000
2.96000000 8.25258000 4.95000000
2.29000000 11.10258000 11.30000000
0.61000000 9.07258000 11.29000000
4.90000000 11.58258000 11.06000000
4.24000000 10.45258000 7.01000000
3.62000000 9.38258000 8.99000000
3.17000000 21.11858000 9.06000000
3.61000000 14.89858000 9.07000000
4.63000000 16.64858000 6.94000000
4.19000000 13.89858000 6.94000000
2.02000000 21.12858000 6.94000000
1.64000000 18.38858000 6.94000000
0.62000000 16.63858000 9.06000000
1.06000000 19.37858000 9.07000000
4.85000000 15.57858000 11.30000000
3.16000000 13.56258000 11.29000000
2.29000000 16.06858000 11.06000000
2.95000000 13.21858000 4.70000000
4.64000000 15.23858000 4.71000000
0.35000000 12.72858000 4.95000000
0.40000000 17.69858000 4.70000000
2.09000000 19.71858000 4.71000000
2.96000000 17.21858000 4.95000000
2.29000000 20.06858000 11.30000000
0.61000000 18.03858000 11.29000000
4.90000000 20.54858000 11.06000000
1.01000000 13.86858000 8.99000000
1.63000000 14.92858000 7.01000000
4.24000000 19.41858000 7.01000000
3.62000000 18.34858000 8.99000000
3.61000000 23.86458000 9.07000000
4.19000000 22.86458000 6.94000000
4.85000000 24.54458000 11.30000000
3.16000000 22.52858000 11.29000000
2.95000000 22.18458000 4.70000000
4.64000000 24.20458000 4.71000000
0.35000000 21.69458000 4.95000000
1.01000000 22.83458000 8.99000000
1.63000000 23.89458000 7.01000000
4.64000000 6.27258000 4.71000000
-0.31000000 6.61258000 11.30000000
2.29000000 25.03458000 11.06000000
-0.53000000 25.61458000 6.94000000
0.62000000 25.60458000 9.06000000
4.41000000 10.47258000 6.05000000
3.44000000 9.36258000 9.95000000
0.84000000 13.84858000 9.95000000
1.81000000 14.94858000 6.05000000
4.41000000 19.43858000 6.05000000
3.44000000 18.32858000 9.95000000
0.84000000 22.81458000 9.95000000
1.81000000 23.91458000 6.05000000
4.76025600 5.38268600 4.34322000
-0.98386000 6.02295200 11.67303000
1.58445300 25.66173300 11.28312200
4.91633500 6.92404500 7.47248200
0.32791300 6.91718200 8.52618500
2.99554700 6.47542700 10.83687800
5.52386000 25.13420800 10.92697000
4.51974400 25.09447400 5.07678000
-0.81633500 26.37311500 6.40751800
0.91208700 26.35997800 9.59381500
