rib_y_o00_si
1.0
5.16000000 0.00000000 0.00000000
0.00000000 31.93200000 0.00000000
0.00000000 0.00000000 17.34700000
Si Al O H
15 8 51 18
Cartesian
3.36000000 15.40000000 10.68000000
3.46000000 9.38000000 10.69000000
4.44000000 11.07000000 5.32000000
4.34000000 8.12000000 5.31000000
1.83000000 15.56000000 5.32000000
1.79000000 12.61000000 5.31000000
0.81000000 10.91000000 10.68000000
0.91000000 13.86000000 10.69000000
3.36000000 24.36600000 10.68000000
3.46000000 18.34600000 10.69000000
4.44000000 20.03600000 5.32000000
4.34000000 17.08600000 5.31000000
1.79000000 21.57600000 5.31000000
0.81000000 19.87600000 10.68000000
0.91000000 22.82600000 10.69000000
2.60000000 8.01000000 8.00000000
0.04000000 9.49000000 8.00000000
2.65000000 13.98000000 8.00000000
0.05000000 12.49000000 8.00000000
2.60000000 16.97600000 8.00000000
0.04000000 18.45600000 8.00000000
2.65000000 22.94600000 8.00000000
0.05000000 21.45600000 8.00000000
3.17000000 15.47000000 9.06000000
3.61000000 9.25000000 9.07000000
4.63000000 11.00000000 6.94000000
4.19000000 8.25000000 6.94000000
2.02000000 15.48000000 6.94000000
1.64000000 12.74000000 6.94000000
0.62000000 10.99000000 9.06000000
1.06000000 13.73000000 9.07000000
4.85000000 9.93000000 11.30000000
3.16000000 7.91400000 11.29000000
2.29000000 10.42000000 11.06000000
2.95000000 7.57000000 4.70000000
4.64000000 9.59000000 4.71000000
0.35000000 7.08000000 4.95000000
0.40000000 12.05000000 4.70000000
2.09000000 14.07000000 4.71000000
2.96000000 11.57000000 4.95000000
2.29000000 14.42000000 11.30000000
0.61000000 12.39000000 11.29000000
4.90000000 14.90000000 11.06000000
1.01000000 8.22000000 8.99000000
1.63000000 9.28000000 7.01000000
4.24000000 13.77000000 7.01000000
3.62000000 12.70000000 8.99000000
3.17000000 24.43600000 9.06000000
3.61000000 18.21600000 9.07000000
4.63000000 19.96600000 6.94000000
4.19000000 17.21600000 6.94000000
2.02000000 24.44600000 6.94000000
1.64000000 21.70600000 6.94000000
0.62000000 19.95600000 9.06000000
1.06000000 22.69600000 9.07000000
4.85000000 18.89600000 11.30000000
3.16000000 16.88000000 11.29000000
2.29000000 19.38600000 11.06000000
2.95000000 16.53600000 4.70000000
4.64000000 18.55600000 4.71000000
0.35000000 16.04600000 4.95000000
0.40000000 21.01600000 4.70000000
2.09000000 23.03600000 4.71000000
2.96000000 20.53600000 4.95000000
2.29000000 23.38600000 11.30000000
0.61000000 21.35600000 11.29000000
4.90000000 23.86600000 11.06000000
1.01000000 17.18600000 8.99000000
1.63000000 18.24600000 7.01000000
4.24000000 22.73600000 7.01000000
3.62000000 21.66600000 8.99000000
3.17000000 6.50400000 9.06000000
2.02000000 6.51400000 6.94000000
3.16000000 25.84600000 11.29000000
0.84000000 8.20000000 9.95000000
1.81000000 9.30000000 6.05000000
4.41000000 13.79000000 6.05000000
3.44000000 12.68000000 9.95000000
0.84000000 17.16600000 9.95000000
1.81000000 18.26600000 6.05000000
4.41000000 22.75600000 6.05000000
3.44000000 21.64600000 9.95000000
3.03974400 26.73589400 11.65678000
3.28025600 7.02410600 10.92322000
2.27512300 6.98189300 5.07359300
1.24663800 6.78556300 5.17415900
2.88320100 25.19375300 8.52665500
1.93536000 23.92220400 5.07280800
3.45679900 5.74624700 9.59334500
1.72744000 5.75939600 6.40532100
2.20813100 25.28573400 6.49239100
2.21948800 6.36846000 8.92196000
