bulk
1.0
5.16000000 0.00000000 0.00000000
0.00000000 8.96600000 0.00000000
0.00000000 0.00000000 9.34700000
Si Al O H
8 4 24 4
Cartesian
3.36000000 8.40000000 6.68000000
3.46000000 2.38000000 6.69000000
4.44000000 4.07000000 1.32000000
4.34000000 1.12000000 1.31000000
1.83000000 8.56000000 1.32000000
1.79000000 5.61000000 1.31000000
0.81000000 3.91000000 6.68000000
0.91000000 6.86000000 6.69000000
2.60000000 1.01000000 4.00000000
0.04000000 2.49000000 4.00000000
2.65000000 6.98000000 4.00000000
0.05000000 5.49000000 4.00000000
3.17000000 8.47000000 5.06000000
3.61000000 2.25000000 5.07000000
4.63000000 4.00000000 2.94000000
4.19000000 1.25000000 2.94000000
2.02000000 8.48000000 2.94000000
1.64000000 5.74000000 2.94000000
0.62000000 3.99000000 5.06000000
1.06000000 6.73000000 5.07000000
4.85000000 2.93000000 7.30000000
3.16000000 0.91400000 7.29000000
2.29000000 3.42000000 7.06000000
2.95000000 0.57000000 0.70000000
4.64000000 2.59000000 0.71000000
0.35000000 0.08000000 0.95000000
0.40000000 5.05000000 0.70000000
2.09000000 7.07000000 0.71000000
2.96000000 4.57000000 0.95000000
2.29000000 7.42000000 7.30000000
0.61000000 5.39000000 7.29000000
4.90000000 7.90000000 7.06000000
1.01000000 1.22000000 4.99000000
1.63000000 2.28000000 3.01000000
4.24000000 6.77000000 3.01000000
3.62000000 5.70000000 4.99000000
0.84000000 1.20000000 5.95000000
1.81000000 2.30000000 2.05000000
4.41000000 6.79000000 2.05000000
3.44000000 5.68000000 5.95000000
